letting n =  10
letting blocks =  [[1, 6], [1, 7], [2, 2], [2, 3], [2, 7], [2, 8], [3, 5], [3, 8], [4, 7], [4, 8], [5, 2], [5, 6], [5, 9], [5, 10], [6, 8], [6, 9], [7, 1], [7, 3], [7, 8], [8, 1], [8, 9], [10, 6], [10, 7], [10, 10]]
